unsat
(forall ((A (_ BitVec 20))
         (B (_ BitVec 20))
         (C (_ BitVec 20))
         (D (_ BitVec 20))
         (E (_ BitVec 20))
         (F (_ BitVec 20))
         (G (_ BitVec 20))
         (H (_ BitVec 20))
         (I (_ BitVec 20))
         (J (_ BitVec 20))
         (K (_ BitVec 20))
         (L (_ BitVec 20))
         (M (_ BitVec 20))
         (N (_ BitVec 1))
         (O (_ BitVec 1))
         (P (_ BitVec 1))
         (Q (_ BitVec 1))
         (R (_ BitVec 20))
         (S (_ BitVec 20))
         (T (_ BitVec 20))
         (U (_ BitVec 20))
         (V (_ BitVec 20))
         (W (_ BitVec 20))
         (X (_ BitVec 1))
         (Y (_ BitVec 20))
         (Z (_ BitVec 18))
         (A1 (_ BitVec 20))
         (B1 (_ BitVec 18))
         (C1 (_ BitVec 20))
         (D1 (_ BitVec 20))
         (E1 (_ BitVec 38))
         (F1 (_ BitVec 1))
         (G1 (_ BitVec 20))
         (H1 (_ BitVec 20))
         (I1 (_ BitVec 17))
         (J1 (_ BitVec 1))
         (K1 (_ BitVec 20))
         (L1 (_ BitVec 20))
         (M1 (_ BitVec 17))
         (N1 (_ BitVec 20))
         (O1 (_ BitVec 20))
         (P1 (_ BitVec 20))
         (Q1 (_ BitVec 20))
         (R1 (_ BitVec 1))
         (S1 (_ BitVec 20))
         (T1 (_ BitVec 1))
         (U1 (_ BitVec 20))
         (V1 (_ BitVec 17))
         (W1 (_ BitVec 38))
         (X1 (_ BitVec 20))
         (Y1 (_ BitVec 38))
         (Z1 (_ BitVec 38))
         (A2 (_ BitVec 1))
         (B2 (_ BitVec 20))
         (C2 (_ BitVec 1))
         (D2 (_ BitVec 20))
         (E2 (_ BitVec 38))
         (F2 (_ BitVec 38))
         (G2 (_ BitVec 1))
         (H2 (_ BitVec 1))
         (I2 (_ BitVec 20))
         (J2 (_ BitVec 20))
         (K2 (_ BitVec 20))
         (L2 (_ BitVec 20))
         (M2 (_ BitVec 14))
         (N2 (_ BitVec 17))
         (O2 (_ BitVec 17))
         (P2 (_ BitVec 17))
         (Q2 (_ BitVec 17))
         (R2 (_ BitVec 17))
         (S2 (_ BitVec 20))
         (T2 (_ BitVec 20))
         (U2 (_ BitVec 37))
         (V2 (_ BitVec 20))
         (W2 (_ BitVec 20))
         (X2 (_ BitVec 20))
         (Y2 (_ BitVec 1))
         (Z2 (_ BitVec 38))
         (A3 (_ BitVec 22))
         (B3 (_ BitVec 20))
         (C3 (_ BitVec 20))
         (D3 (_ BitVec 20))
         (E3 (_ BitVec 1))
         (F3 (_ BitVec 20))
         (G3 (_ BitVec 1))
         (H3 (_ BitVec 38))
         (I3 (_ BitVec 17))
         (J3 (_ BitVec 14))
         (K3 (_ BitVec 17))
         (L3 (_ BitVec 22))
         (M3 (_ BitVec 14))
         (N3 (_ BitVec 22))
         (O3 (_ BitVec 14))
         (P3 (_ BitVec 22))
         (Q3 (_ BitVec 14))
         (R3 (_ BitVec 22))
         (S3 (_ BitVec 14))
         (T3 (_ BitVec 38))
         (U3 (_ BitVec 22))
         (V3 (_ BitVec 14))
         (W3 (_ BitVec 22))
         (X3 (_ BitVec 14))
         (Y3 (_ BitVec 22))
         (Z3 (_ BitVec 1))
         (A4 (_ BitVec 1))
         (B4 (_ BitVec 1))
         (C4 (_ BitVec 1))
         (D4 (_ BitVec 1))
         (E4 (_ BitVec 1))
         (F4 (_ BitVec 1))
         (G4 (_ BitVec 1))
         (H4 (_ BitVec 1))
         (I4 (_ BitVec 1))
         (J4 (_ BitVec 1))
         (K4 (_ BitVec 1))
         (L4 (_ BitVec 1))
         (M4 (_ BitVec 1))
         (N4 (_ BitVec 22))
         (O4 (_ BitVec 9))
         (P4 (_ BitVec 20))
         (Q4 (_ BitVec 16))
         (R4 (_ BitVec 38))
         (S4 (_ BitVec 30))
         (T4 (_ BitVec 30))
         (U4 (_ BitVec 20))
         (V4 (_ BitVec 20))
         (W4 (_ BitVec 1))
         (X4 (_ BitVec 1))
         (Y4 (_ BitVec 1))
         (Z4 (_ BitVec 1))
         (A5 (_ BitVec 1))
         (B5 (_ BitVec 20))
         (C5 (_ BitVec 20))
         (D5 (_ BitVec 20))
         (E5 (_ BitVec 20))
         (F5 (_ BitVec 20))
         (G5 (_ BitVec 16))
         (H5 (_ BitVec 20))
         (I5 (_ BitVec 18))
         (J5 (_ BitVec 30))
         (K5 (_ BitVec 1))
         (L5 (_ BitVec 38))
         (M5 (_ BitVec 30)))
  (! (let ((a!1 ((_ extract 17 2)
                  (bvadd (concat #b0 N4) (concat #b000 ((_ extract 21 2) A3)))))
           (a!3 (concat ((_ extract 15 2)
                          (bvadd (concat #x000 L3) ((_ extract 37 4) E2)))
                        (bvadd ((_ extract 1 0) L3) ((_ extract 5 4) E2))
                        ((_ extract 3 0) E2)))
           (a!4 (concat ((_ extract 13 2)
                          (bvadd (concat #b0000000000 N3) ((_ extract 37 6) W1)))
                        (bvadd ((_ extract 1 0) N3) ((_ extract 7 6) W1))
                        ((_ extract 5 0) W1)))
           (a!5 (concat ((_ extract 11 2)
                          (bvadd ((_ extract 37 8) E1) (concat #x00 P3)))
                        (bvadd ((_ extract 1 0) P3) ((_ extract 9 8) E1))
                        ((_ extract 7 0) E1)))
           (a!6 (concat ((_ extract 9 2)
                          (bvadd (concat #b000000 R3) ((_ extract 37 10) Y1)))
                        (bvadd ((_ extract 1 0) R3) ((_ extract 11 10) Y1))
                        ((_ extract 9 0) Y1)))
           (a!7 (concat ((_ extract 7 2)
                          (bvadd (concat #x0 U3) ((_ extract 37 12) T3)))
                        (bvadd ((_ extract 13 12) T3) ((_ extract 1 0) U3))
                        ((_ extract 11 0) T3)))
           (a!8 (concat ((_ extract 5 2)
                          (bvadd (concat #b00 W3) ((_ extract 37 14) Z1)))
                        (bvadd ((_ extract 1 0) W3) ((_ extract 15 14) Z1))
                        ((_ extract 13 0) Z1)))
           (a!9 (= D2
                   (concat (bvadd ((_ extract 3 0) Y3) ((_ extract 19 16) F2))
                           ((_ extract 15 0) F2))))
           (a!10 (or (= S2 #x00000)
                     ((_ bit2bool 0) A3)
                     ((_ bit2bool 1) A3)
                     ((_ bit2bool 2) A3)
                     (not (= ((_ extract 0 0) N2) #b1))))
           (a!11 (or ((_ bit2bool 3) O4) (not (= P (bvnot I4)))))
           (a!12 (or ((_ bit2bool 4) O4) (not (= B4 (bvnot J4))))))
     (let ((a!2 (= S2
                   (concat a!1
                           (bvadd ((_ extract 3 2) A3) ((_ extract 1 0) N4))
                           ((_ extract 1 0) A3)))))
     (let ((a!13 (and (or ((_ bit2bool 8) O4) (not (= D4 #b0)) (= M4 #b0))
                      (not ((_ bit2bool 7) Q3))
                      (not ((_ bit2bool 6) Q3))
                      (not ((_ bit2bool 5) Q3))
                      (not ((_ bit2bool 4) Q3))
                      (not ((_ bit2bool 3) Q3))
                      (not ((_ bit2bool 2) Q3))
                      (not ((_ bit2bool 1) Q3))
                      (not ((_ bit2bool 0) Q3))
                      (not ((_ bit2bool 11) M3))
                      (not ((_ bit2bool 10) M3))
                      (not ((_ bit2bool 9) M3))
                      (not ((_ bit2bool 8) M3))
                      (not ((_ bit2bool 7) M3))
                      (not ((_ bit2bool 6) M3))
                      (not ((_ bit2bool 5) M3))
                      (not ((_ bit2bool 4) M3))
                      (not ((_ bit2bool 3) M3))
                      (not ((_ bit2bool 2) M3))
                      (not ((_ bit2bool 1) M3))
                      (not ((_ bit2bool 0) M3))
                      (not ((_ bit2bool 13) J3))
                      (not ((_ bit2bool 12) J3))
                      (not ((_ bit2bool 11) J3))
                      (not ((_ bit2bool 10) J3))
                      (not ((_ bit2bool 9) J3))
                      (not ((_ bit2bool 8) J3))
                      (not ((_ bit2bool 7) J3))
                      (not ((_ bit2bool 6) J3))
                      (not ((_ bit2bool 5) J3))
                      (not ((_ bit2bool 4) J3))
                      (not ((_ bit2bool 3) J3))
                      (not ((_ bit2bool 2) J3))
                      (not ((_ bit2bool 1) J3))
                      (not ((_ bit2bool 0) J3))
                      (not ((_ bit2bool 9) O3))
                      (not ((_ bit2bool 6) O3))
                      (not ((_ bit2bool 3) O3))
                      (not ((_ bit2bool 7) O3))
                      (not ((_ bit2bool 2) O3))
                      (not ((_ bit2bool 1) O3))
                      (not ((_ bit2bool 8) O3))
                      (not ((_ bit2bool 0) O3))
                      (not ((_ bit2bool 4) O3))
                      (not ((_ bit2bool 5) O3))
                      (not (= ((_ extract 17 17) I5) #b1))
                      (not (= ((_ extract 17 17) B1) #b1))
                      (not (= ((_ extract 17 17) Z) #b1))
                      (or (= S2 #x00000) (not (= C1 #x00000)))
                      (or (not (= B3 #x00000)) (= K1 #x00000))
                      (or (not (= F5 #x00000)) (= W2 #x00000))
                      (not ((_ bit2bool 19) B3))
                      (not ((_ bit2bool 19) C1))
                      (not ((_ bit2bool 0) S3))
                      (not ((_ bit2bool 1) S3))
                      (not ((_ bit2bool 2) V3))
                      (not ((_ bit2bool 4) S3))
                      (not ((_ bit2bool 0) X3))
                      (or ((_ bit2bool 1) N2)
                          ((_ bit2bool 2) N2)
                          (not ((_ bit2bool 0) N2))
                          a!2)
                      (or ((_ bit2bool 1) O2)
                          ((_ bit2bool 2) O2)
                          (not ((_ bit2bool 0) O2))
                          (= a!3 K1))
                      (or ((_ bit2bool 1) M1)
                          ((_ bit2bool 2) M1)
                          (= T2 a!4)
                          (not ((_ bit2bool 0) M1)))
                      (or ((_ bit2bool 1) P2)
                          ((_ bit2bool 2) P2)
                          (not ((_ bit2bool 0) P2))
                          (= a!5 H1))
                      (or ((_ bit2bool 1) I1)
                          ((_ bit2bool 2) I1)
                          (not ((_ bit2bool 0) I1))
                          (= a!6 V2))
                      (or ((_ bit2bool 1) Q2)
                          ((_ bit2bool 2) Q2)
                          (not ((_ bit2bool 0) Q2))
                          (= G1 a!7))
                      (not ((_ bit2bool 2) S3))
                      (not ((_ bit2bool 0) V3))
                      (not ((_ bit2bool 3) S3))
                      (or ((_ bit2bool 1) I3)
                          ((_ bit2bool 2) I3)
                          (not ((_ bit2bool 0) I3))
                          (= W2 a!8))
                      (not ((_ bit2bool 1) V3))
                      (or ((_ bit2bool 2) R2)
                          ((_ bit2bool 1) R2)
                          (not ((_ bit2bool 0) R2))
                          a!9)
                      (not ((_ bit2bool 1) X3))
                      (not ((_ bit2bool 5) S3))
                      (not ((_ bit2bool 3) V3))
                      (or ((_ bit2bool 1) K3)
                          ((_ bit2bool 2) K3)
                          (not ((_ bit2bool 0) K3))
                          (= X2 ((_ extract 19 0) Z2)))
                      (or (not ((_ bit2bool 0) U1))
                          (not ((_ bit2bool 0) L))
                          (not ((_ bit2bool 0) K2)))
                      (or ((_ bit2bool 2) B1)
                          ((_ bit2bool 0) B1)
                          ((_ bit2bool 1) B1)
                          ((_ bit2bool 2) Z)
                          (not ((_ bit2bool 2) I5)))
                      (or ((_ bit2bool 0) I5)
                          ((_ bit2bool 0) B1)
                          (not ((_ bit2bool 0) Z)))
                      (or (= T2 #x00000)
                          ((_ bit2bool 1) S)
                          ((_ bit2bool 14) S)
                          ((_ bit2bool 3) S)
                          ((_ bit2bool 4) S)
                          ((_ bit2bool 7) S)
                          ((_ bit2bool 8) S)
                          ((_ bit2bool 6) S)
                          ((_ bit2bool 9) S)
                          ((_ bit2bool 5) S)
                          ((_ bit2bool 0) S)
                          ((_ bit2bool 10) S)
                          ((_ bit2bool 11) S)
                          ((_ bit2bool 12) S)
                          ((_ bit2bool 13) S)
                          ((_ bit2bool 2) S)
                          ((_ bit2bool 15) S)
                          ((_ bit2bool 16) S)
                          ((_ bit2bool 17) S)
                          ((_ bit2bool 18) S))
                      (or (= H1 #x00000)
                          ((_ bit2bool 1) X1)
                          ((_ bit2bool 5) X1)
                          ((_ bit2bool 7) X1)
                          ((_ bit2bool 13) X1)
                          ((_ bit2bool 16) X1)
                          ((_ bit2bool 2) X1)
                          ((_ bit2bool 3) X1)
                          ((_ bit2bool 4) X1)
                          ((_ bit2bool 10) X1)
                          ((_ bit2bool 15) X1)
                          ((_ bit2bool 17) X1)
                          ((_ bit2bool 18) X1)
                          ((_ bit2bool 14) X1)
                          ((_ bit2bool 8) X1)
                          ((_ bit2bool 11) X1)
                          ((_ bit2bool 12) X1)
                          ((_ bit2bool 6) X1)
                          ((_ bit2bool 9) X1)
                          (= ((_ extract 0 0) X1) #b1))
                      (or ((_ bit2bool 2) C3)
                          ((_ bit2bool 10) C3)
                          ((_ bit2bool 12) C3)
                          ((_ bit2bool 13) C3)
                          ((_ bit2bool 14) C3)
                          ((_ bit2bool 5) C3)
                          ((_ bit2bool 6) C3)
                          ((_ bit2bool 7) C3)
                          ((_ bit2bool 3) C3)
                          ((_ bit2bool 4) C3)
                          ((_ bit2bool 8) C3)
                          ((_ bit2bool 9) C3)
                          ((_ bit2bool 15) C3)
                          ((_ bit2bool 16) C3)
                          ((_ bit2bool 17) C3)
                          ((_ bit2bool 18) C3)
                          (= V2 #x00000)
                          ((_ bit2bool 11) C3)
                          ((_ bit2bool 1) C3)
                          (= ((_ extract 0 0) C3) #b1))
                      (or ((_ bit2bool 12) Q1)
                          ((_ bit2bool 13) Q1)
                          ((_ bit2bool 14) Q1)
                          ((_ bit2bool 15) Q1)
                          ((_ bit2bool 16) Q1)
                          ((_ bit2bool 17) Q1)
                          ((_ bit2bool 1) Q1)
                          ((_ bit2bool 11) Q1)
                          ((_ bit2bool 2) Q1)
                          ((_ bit2bool 3) Q1)
                          ((_ bit2bool 4) Q1)
                          ((_ bit2bool 5) Q1)
                          ((_ bit2bool 6) Q1)
                          ((_ bit2bool 7) Q1)
                          ((_ bit2bool 8) Q1)
                          ((_ bit2bool 9) Q1)
                          ((_ bit2bool 18) Q1)
                          (= G1 #x00000)
                          ((_ bit2bool 10) Q1)
                          ((_ bit2bool 0) Q1))
                      (or ((_ bit2bool 0) A2) (= E4 #b0) ((_ bit2bool 0) X))
                      (or ((_ bit2bool 0) O4) (= F4 #b0) (= Z3 #b1))
                      (or (= ((_ extract 19 0) U2) (bvmul #xfffff S1))
                          (not (= W4 #b0))
                          ((_ bit2bool 1) V1)
                          ((_ bit2bool 2) V1)
                          (= R1 #b0)
                          (not ((_ bit2bool 0) V1)))
                      a!10
                      (or ((_ bit2bool 0) E4)
                          ((_ bit2bool 0) A2)
                          (not ((_ bit2bool 0) X)))
                      (or ((_ bit2bool 0) O4) (not (= F4 #b0)) (= Z3 #b0))
                      (or ((_ bit2bool 1) O4) (not (= G4 #b0)) (= Q #b0))
                      (or (not (= H4 #b0)) ((_ bit2bool 2) O4) (not (= A4 #b1)))
                      (or ((_ bit2bool 5) O4) (not (= K4 #b0)) (not (= O #b1)))
                      (or (not (= T1 #b0)) ((_ bit2bool 6) O4) (not (= C4 #b1)))
                      (or (not (= L4 #b0)) ((_ bit2bool 7) O4) (not (= N #b1)))
                      (or ((_ bit2bool 8) O4) (not (= M4 #b0)) (not (= D4 #b1)))
                      (or (not (= R1 #b0))
                          (= ((_ extract 19 0) U2) (bvmul #xfffff S1))
                          (not (= V1 #b00000000000000001))
                          (not (= W4 #b1)))
                      (or (not (= G2 #b0)) (= H2 #b0))
                      (or ((_ bit2bool 1) O4) (= Q #b1) (not (= G4 #b1)))
                      (or ((_ bit2bool 2) O4) (= H4 #b0) (= A4 #b1))
                      a!11
                      a!12
                      (or ((_ bit2bool 5) O4) (not (= O #b0)) (= K4 #b0))
                      (or ((_ bit2bool 6) O4) (= T1 #b0) (= C4 #b1))
                      (or ((_ bit2bool 7) O4) (not (= N #b0)) (not (= L4 #b1))))))
       (= (INV!slice!1 A
                       B
                       C
                       D
                       E
                       F
                       G
                       H
                       I
                       J
                       K
                       L
                       M
                       N
                       O
                       P
                       Q
                       R
                       S
                       T
                       U
                       V
                       W
                       X
                       Y
                       Z
                       A1
                       B1
                       C1
                       D1
                       E1
                       F1
                       G1
                       H1
                       I1
                       J1
                       K1
                       L1
                       M1
                       N1
                       O1
                       P1
                       Q1
                       R1
                       S1
                       T1
                       U1
                       V1
                       W1
                       X1
                       Y1
                       Z1
                       A2
                       B2
                       C2
                       D2
                       E2
                       F2
                       G2
                       H2
                       I2
                       J2
                       K2
                       L2
                       M2
                       N2
                       O2
                       P2
                       Q2
                       R2
                       S2
                       T2
                       U2
                       V2
                       W2
                       X2
                       Y2
                       Z2
                       A3
                       B3
                       C3
                       D3
                       E3
                       F3
                       G3
                       H3
                       I3
                       J3
                       K3
                       L3
                       M3
                       N3
                       O3
                       P3
                       Q3
                       R3
                       S3
                       T3
                       U3
                       V3
                       W3
                       X3
                       Y3
                       Z3
                       A4
                       B4
                       C4
                       D4
                       E4
                       F4
                       G4
                       H4
                       I4
                       J4
                       K4
                       L4
                       M4
                       N4
                       O4
                       P4
                       Q4
                       R4
                       S4
                       T4
                       U4
                       V4
                       W4
                       X4
                       Y4
                       Z4
                       A5
                       B5
                       C5
                       D5
                       E5
                       F5
                       G5
                       H5
                       I5
                       J5
                       K5
                       L5
                       M5)
          a!13))))
     :weight 0))
